Route #1: 98 3 118 85 126 95 52 29 87 30 84 7 91 56
Route #2: 114 137 25 125 36 24 32 16 124 88 109 45 20 73
Route #3: 120 133 64 105 46 82 106 77 43 130 127 93 132 107 78 35
Route #4: 75 111 76 122 138 21 55 18 103 28 63 104 81
Route #5: 100 42 67 59 102 14 101 128 116 83 136 86 33 135
Route #6: 71 134 40 17 37 11 47 119 68 1 89 121 79
Route #7: 54 10 74 50 97 31 92 41 80 13 58 110
Route #8: 123 27 115 34 131 38 69 26 108 94 22 112 9 70
Route #9: 51 8 57 4 62 23 117 72 48 65 44 15 39
Route #10: 99 2 49 129 53 5 96 6 113 90 12 66 19 61
Route #11: 60
Cost 18364
